300
500
400
400
399
399
394
394
393
393
392
391
391
390
387
387
386
384
383
383
383
382
381
379
378
378
377
376
376
376
373
370
370
369
367
367
365
364
363
363
362
362
361
359
357
356
355
354
353
351
350
350
348
347
347
346
345
343
342
341
340
340
340
340
338
338
335
334
334
333
333
331
330
329
328
327
327
326
326
326
325
325
325
323
317
317
315
314
313
313
311
305
304
303
302
302
302
300
299
296
296
291
291
290
286
285
283
283
283
281
279
278
277
274
274
273
272
272
270
267
266
265
265
264
264
263
263
261
260
258
257
256
256
256
254
253
252
251
246
246
245
245
244
243
243
243
243
242
242
242
240
240
239
239
238
236
234
233
233
230
229
228
226
226
226
225
225
224
222
222
222
219
214
212
212
210
209
207
205
205
204
203
202
202
202
202
201
200
199
199
197
196
196
196
195
195
194
190
190
190
189
189
187
186
186
186
184
184
184
184
184
182
181
180
179
179
179
178
175
175
175
174
172
168
167
167
167
167
165
165
163
161
161
160
158
158
154
154
154
153
153
152
151
151
150
149
148
148
148
148
147
145
144
143
141
140
139
138
136
134
134
133
132
132
132
131
128
128
128
128
127
126
125
125
124
123
122
122
121
121
121
120
118
118
118
117
116
116
116
115
114
114
114
111
110
110
110
107
107
103
102
101
